8319.0
0 1 0 0 0 0 0 1 1 1 0 0 0 1 1 1 0 1 0 0 0 1 1 0 0 0 0 1 1 1 
29 29 29 29 29 29 29 1 22 1 1 1 1 22 1 21 21 14 21 21 15 17 17 17 17 17 17 7 7 8 7 8 9 9 29 21 21 17 14 28 29 15 15 22 17 14 14 17 29 28 29 27 13 22 17 14 13 28 14 14 15 15 28 28 14 27 14 13 15 28 